HUN,8,6,802
0,19,4,19,2,22,1,24,3,15,5,28
3,14,5,10,4,17,0,20,2,13,1,23
2,7,1,2,0,4,5,15,4,12,3,2
0,29,1,10,5,11,3,28,2,28,4,5
3,12,0,15,4,12,2,6,1,3,5,27
2,9,0,11,5,27,4,17,1,22,3,21
0,19,1,2,2,10,5,12,4,19,3,26
0,8,2,9,3,14,4,28,1,30,5,20
